
Gurobi 13.0.2 (win64) logging started Thu Jul 23 08:55:01 2026

Set parameter LogFile to value "E:\codes\ExactEBRP\results\gf_cplex_equivalent_gurobi_replica_round28\runs\stage3__tight_T_seed3101__c3_replica__300s\external\native_logs\R.0.0.0.1.0.0_lp.gurobi.log"
Gurobi Optimizer version 13.0.2 build v13.0.2rc1 (win64 - Windows 10.0 (19045.2))

CPU model: 12th Gen Intel(R) Core(TM) i7-12700KF, instruction set [SSE2|AVX|AVX2]
Thread count: 12 physical cores, 20 logical processors, using up to 1 threads

Non-default parameters:
TimeLimit  226.3141483
MIPGap  0
MIPGapAbs  0
LogToConsole  0
Threads  1

Optimize a model with 11939 rows, 3384 columns and 67420 nonzeros (Min)
Model fingerprint: 0x98541558
Model has 21 linear objective coefficients
Coefficient statistics:
  Matrix range     [7e-03, 2e+04]
  Objective range  [7e-03, 1e+00]
  Bounds range     [7e-03, 3e+02]
  RHS range        [7e-03, 5e+04]

Presolve removed 1116 rows and 105 columns
Presolve time: 0.04s
Presolved: 10823 rows, 3468 columns, 62289 nonzeros

Iteration    Objective       Primal Inf.    Dual Inf.      Time
       0    6.7032959e-03   2.729799e+02   0.000000e+00      0s

Extra simplex iterations after uncrush: 29
    3091    7.8251255e-03   0.000000e+00   0.000000e+00      0s

Solved in 3091 iterations and 0.22 seconds (0.68 work units)
Optimal objective  7.825125501e-03

User-callback calls 3241, time in user-callback 0.00 sec
